p tw 69 77
1 2
2 13
3 4
4 5
5 6
6 7
6 10
7 8
8 9
8 15
9 18
10 11
11 12
12 14
13 24
14 20
15 16
16 17
17 20
18 19
19 20
20 21
21 22
22 67
23 25
24 35
24 67
25 26
26 27
27 28
28 29
28 31
29 30
30 23
31 32
32 33
32 37
33 34
33 37
34 36
35 46
36 37
36 40
37 38
38 39
39 65
40 41
41 42
42 43
43 44
44 45
45 47
46 57
47 48
48 49
49 50
50 51
51 52
52 53
52 61
53 54
54 55
55 56
56 58
57 67
58 59
59 60
60 51
61 62
62 63
63 64
64 65
65 66
67 68
68 69
69 3
69 23
